10J3M/DAT/10J3MNNL-16.dat
10 3
32.646 32.646
33.1763 33.1763
26.0643 26.0643
14.7284 14.7284
27.232 27.232
24.6974 24.6974
16.8246 16.8246
24.5268 24.5268
34.7027 34.7027
30.5645 30.5645
265.163