10J3M/SOL/10J3MNNL-16.sol
solution status: optimal solution found
objective value:                     83.8228333333333
x#1#2                                               1 	(obj:0)
x#2#2                                               1 	(obj:0)
x#3#2                                               1 	(obj:0)
x#4#3                                               1 	(obj:0)
x#5#2                                0.32720581347422 	(obj:0)
x#5#3                                0.67279418652578 	(obj:0)
x#6#3                                               1 	(obj:0)
x#7#1                                               1 	(obj:0)
x#8#1                               0.804373768085297 	(obj:0)
x#8#3                               0.195626231914703 	(obj:0)
x#9#1                                               1 	(obj:0)
x#10#1                                              1 	(obj:0)
z                                    83.8228333333333 	(obj:1)
